AES/1_3_4/ssaes_r1-20_c3_rw1_e4_f0_k1-20_aes_1base_box_aes_mc_bidirectional/ExperimentMinisat_r20_k10cnf_2011-10-29-153200/Result
WARNING: for repeatability, setting FPU to use double precision
============================[ Problem Statistics ]=============================
|                                                                             |
|  Number of variables:          1156                                         |
|  Number of clauses:            5088                                         |
|  Parse time:                   0.00 s                                       |
|  Eliminated clauses:           0.01 Mb                                      |
|  Simplification time:          0.00 s                                       |
|                                                                             |
=============================[ Search Statistics ]==============================
| Conflicts  |          ORIGINAL         |          LEARNT          | Progress |
|            |    Vars  Clauses Literals |    Limit  Clauses Lit/Cl |          |
================================================================================
|        100 |     800     4056    13344 |     1487      100     13 |  8.997 % |
|        250 |     800     4056    13344 |     1635      250     15 |  8.997 % |
|        475 |     800     4056    13344 |     1799      475     14 |  8.997 % |
===============================================================================
restarts              : 5
conflicts             : 512            (13476 /sec)
decisions             : 660            (0.00 % random) (17371 /sec)
propagations          : 189350         (4983682 /sec)
conflict literals     : 7319           (33.28 % deleted)
Memory used           : 8.00 MB
CPU time              : 0.037994 s

SATISFIABLE
